x04m01e2t24tp2_03
4667
4667
4667
4667
4667
4667
4667
4667
4667
4676
4676
4676
4676
4676
4807
4807
4807
4807
4807
4807
4807
4838
4857
4857
4857
4857
4981
5027
5027
5027
5027
5058
5058
5058
5116
5116
5116
5116
5116
5116
5116
5116
5116
5116
5116
5116
5116
5116
5116
5144
5195
5195
5195
5195
5195
5195
5195
5195
5195
5195
5195
5195
5195
5195
5346
5346
5346
5346
5346
5346
5346
5346
5346
5346
5346
5346
5346
5346
5346
5346
5346
5358
5358
5358
5358
5358
5358
5358
5358
5358
5358
5358
5358
5358
5358
5358
5358
5358
5358
5358
5358
5358
5358
5358
5358
5358
5358
5358
5358
5358
5358
5358
5358
5358
5358
5358
5358
5358
5358
5358
5358
5358
5358
5358
5358
5358
5358
5358
5358
5358
5358
5358
5358
5358
5358
5358
5358
5358
5358
5358
5358
5358
5358
5358
5358
5358
5358
5358
5358
5358
5358
5358
5358
5358
5358
5358
5358
5358
5358
5358
5358
5358
5358
5358
5358
5358
5358
5358
5358
5358
5358
5358
5358
5358
5358
5358
5358
5358
5358
5358
5358
5358
5358
5358
5358
5358
5358
5358
5358
5358
5358
5358
5358
5358
5358
5358
5358
5358
5358
5358
5358
5358
5358
5358
5358
5358
5358
5358
5358
5358
5358
5358
5358
5358
5358
5358
5358
5358
5358
5358
5358
5358
5358
5358
5358
5358
5358
5358
5358
5358
5358
5358
5358
5358
5358
5358
5358
5358
5358
5358
5358
5358
5358
5358
5358
5358
5358
5358
5358
5358
5358
5358
5358
5358
5358
5358
5358
5358
5358
5358
5358
5358
5358
5358
5358
5358
5358
5358
5358
5358
5358
5358
5358
5358
5358
5358
5358
5358
5358
5358
5358
5358
5358
5358
5358
5358
5358
5358
5358
5358
5358
5358
5358
5358
5358
5358
5358
5358
5358
5358
5358
5358
5358
5358
5358
5358
5358
5358
5358
5358
5358
5358
5358
5358
5358
5358
5358
5358
5358
5358
5358
5358
5358
5358
5358
5358
5358
5358
5358
5358
5358
5358
5358
5358
5358
5358
5358
5358
5358
5358
5358
5358
5358
5358
5358
5358
5358
5358
5358
5358
5358
5358
5358
5358
5358
5358
5358
5358
5358
5358
5358
5358
5358
5358
5358
5358
5358
5358
5358
5358
5358
5358
5358
5358
5358
5358
5358
5358
5358
5358
5358
5358
5358
5358
5358
5358
5358
5358
5358
5358
5358
5358
5358
5358
5358
5358
5358
5358
5358
5358
5358
5358
5358
5358
5358
5358
5358
5358
5358
5358
5358
5358
5358
5358
5358
5358
5358
5358
5358
5358
5358
5358
5358
5358
5358
5358
5358
5358
5358
5358
5358
5358
5358
5358
5358
5358
5358
5358
5358
5358
5358
5358
5358
5358
5358
5358
5358
5358
5358
5358
5358
5358
5358
5358
5358
5358
5358
5358
5358
5358
5358
5358
5358
5358
5358
5358
5358
5358
5358
5358
5358
5358
5358
5358
5358
5358
5358
5358
5358
5358
5358
5358
5358
5358
5358
5358
5358
5358
5358
5358
5358
5358
5358
5358
5358
5358
5358
5358
5358
5358
5358
5358
5358
5358
5358
5358
5358
5358
5358
5358
5358
5358
5358
5358
5358
5358
5358
5358
5358
5358
5358
5358
5358
5358
5358
5358
5358
5358
5358
5358
5358
5358
5358
5358
5358
5358
5358
5358
5358
5358
5358
5358
5358
5358
5358
5358
5358
5358
5358
5358
5358
5358
5358
5358
5358
5358
5358
5358
5359
5359
5359
5359
5359
5359
5359
5359
5359
5359
5359
5359
5359
5359
5359
5359
5359
5359
5359
5359
5359
5359
5359
5359
5359
5359
5359
5359
5359
5359
5359
5359
5359
5359
5359
5359
5359
5359
5359
5359
5359
5359
5359
5359
5359
5359
5359
5359
5359
5359
5359
5359
5359
5359
5359
5359
5359
5359
5359
5359
5359
5359
5359
5359
5359
5359
5359
5359
5359
5359
5359
5359
5359
5359
5359
5359
5359
5359
5359
5359
5359
5359
5359
5359
5359
5359
5359
5359
5359
5359
5359
5359
5359
5359
5359
5359
5359
5359
5359
5359
5359
5359
5359
5359
5359
5359
5359
5359
5359
5359
5359
5359
5359
5359
5359
5359
5359
5359
5359
5359
5359
5359
5359
5359
5359
5359
5359
5359
5359
5359
5359
5359
5359
5359
5359
5359
5359
5359
5359
5359
5359
5359
5359
5359
5359
5359
5359
5359
5359
5359
5359
5359
5359
5359
5359
5359
5359
5359
5359
5359
5359
5359
5359
5359
5359
5359
5359
5359
5359
5359
5359
5359
5359
5359
5359
5359
5359
5359
5359
5359
5359
5359
5359
5359
5359
5359
5359
5359
5359
5359
5359
5359
5359
5359
5359
5359
5359
5359
5359
5359
5359
5359
5359
5359
5359
5359
5359
5359
5359
5359
5359
5359
5359
5359
5359
5359
5359
5359
5359
5359
5359
5359
5359
5359
5359
5359
5359
5359
5359
5359
5359
5359
5359
5359
5359
5359
5359
5359
5359
5359
5359
5359
5359
5359
5359
5359
5359
5359
5359
5359
5359
5359
5359
5359
5359
5359
5359
5359
5359
5359
5359
5359
5359
5359
5359
5359
5359
5359
5359
5359
5359
5359
5359
5359
5359
5359
5359
5359
5359
5359
5359
5359
5359
5359
5359
5359
5359
5359
5359
5359
5359
5359
5359
5359
5359
5359
5359
5359
5359
5359
5359
5359
5359
5359
5359
5359
5359
5359
5359
5359
5359
5359
5359
5359
5359
5359
5359
5359
5359
5359
5359
5359
5359
5359
5359
5359
5359
5359
5359
5359
5359
5359
5359
5359
5359
5359
5359
5359
5359
5359
5359
5359
5359
5359
5359
5359
5359
5359
5359
5359
5359
5359
5359
5359
5359
5359
5359
5359
5359
5359
5359
5359
5359
5359
5359
5359
5359
5359
5359
5359
5359
5359
5359
5359
5359
5359
5359
5359
5359
5359
5359
5359
5359
5359
5359
5359
5359
5359
5359
5359
5359
5359
5359
5359
5359
5359
5359
5359
5359
5359
5359
5359
5359
5359
5359
5359
5359
5359
5359
5359
5359
5359
5359
5359
5359
5359
5359
5359
5359
5359
5359
5359
5359
5359
5359
5359
5359
5359
5359
5359
5359
5359
5359
5359
5359
5359
5359
5359
5359
5359
5359
5359
